(declare-const a Real)
(declare-const b Real)
(declare-const c Real)
(assert (= (* a b c) 1))
(assert (> a 0))
(assert (> b 0))
(assert (> c 0))
(assert (not (<= (+ (* -14478098432 (pow b 4)) (* -11105878016 (pow a 4)) (* (pow (+ 106555392 (* 15815081984 b (pow a 3)) (* 51550552064 a (pow b 3))) -3) (pow (+ (* 106555392 a) (* 106555392 b) (* 15815081984 b (pow a 3)) (* 51550552064 a (pow b 3))) 4)) (* -28991029248 (pow a (pow 3 -1)) (pow b (/ 11 3))) (* -14495514624 (pow a (/ 10 3)) (pow b (/ 2 3)))) 0)))
(check-sat)
(get-model)
(exit)